14 965
520 7 441 7 347 7 188 9 17 11 840 15 710 23
520 7 441 7 347 7 188 9 17 11 840 15 710 23
520 7 476 7 355 7 196 12
520 7 476 7 355 7 196 12
525 7 482 7 394 7 212 9 29 11 822 15 623 21
525 7 482 7 394 7 212 9 29 11 822 15 623 21
528 7 482 7 360 7 199 12
525 7 479 7 355 7 106 9 927 13
525 7 482 7 365 7 115 9 943 13
525 7 479 7 355 7 106 9 931 13
525 7 479 7 355 7 106 9 927 13
525 7 479 7 355 7 106 9 927 13
525 7 504 7 362 7 209 9 25 11 818 15 624 21
525 7 504 7 362 7 209 9 25 11 818 15 624 21
